BAYES
196
2 2 2 2 2 2 2 2 2 2 2 2 2 2 2 2 2 2 2 2 2 2 2 2 2 2 2 2 2 2 2 2 2 2 2 2 2 2 2 2 2 2 2 2 2 2 2 2 2 2 2 2 2 2 2 2 2 2 2 2 2 2 2 2 2 2 2 2 2 2 2 2 2 2 2 2 2 2 2 2 2 2 2 2 2 2 2 2 2 2 2 2 2 2 2 2 2 2 2 2 2 2 2 2 2 2 2 2 2 2 2 2 2 2 2 2 2 2 2 2 2 2 2 2 2 2 2 2 2 2 2 2 2 2 2 2 2 2 2 2 2 2 2 2 2 2 2 2 2 2 2 2 2 2 2 2 2 2 2 2 2 2 2 2 2 2 2 2 2 2 2 2 2 2 2 2 2 2 2 2 2 2 2 2 2 2 2 2 2 2 2 2 2 2 2 2
196
1 0
2 0 1
2 1 2
2 2 3
2 3 4
2 4 5
2 5 6
2 6 7
2 7 8
2 8 9
2 9 10
2 10 11
2 11 12
2 12 13
2 0 14
3 1 14 15
3 2 15 16
3 3 16 17
3 4 17 18
3 5 18 19
3 6 19 20
3 7 20 21
3 8 21 22
3 9 22 23
3 10 23 24
3 11 24 25
3 12 25 26
3 13 26 27
2 14 28
3 15 28 29
3 16 29 30
3 17 30 31
3 18 31 32
3 19 32 33
3 20 33 34
3 21 34 35
3 22 35 36
3 23 36 37
3 24 37 38
3 25 38 39
3 26 39 40
3 27 40 41
2 28 42
3 29 42 43
3 30 43 44
3 31 44 45
3 32 45 46
3 33 46 47
3 34 47 48
3 35 48 49
3 36 49 50
3 37 50 51
3 38 51 52
3 39 52 53
3 40 53 54
3 41 54 55
2 42 56
3 43 56 57
3 44 57 58
3 45 58 59
3 46 59 60
3 47 60 61
3 48 61 62
3 49 62 63
3 50 63 64
3 51 64 65
3 52 65 66
3 53 66 67
3 54 67 68
3 55 68 69
2 56 70
3 57 70 71
3 58 71 72
3 59 72 73
3 60 73 74
3 61 74 75
3 62 75 76
3 63 76 77
3 64 77 78
3 65 78 79
3 66 79 80
3 67 80 81
3 68 81 82
3 69 82 83
2 70 84
3 71 84 85
3 72 85 86
3 73 86 87
3 74 87 88
3 75 88 89
3 76 89 90
3 77 90 91
3 78 91 92
3 79 92 93
3 80 93 94
3 81 94 95
3 82 95 96
3 83 96 97
2 84 98
3 85 98 99
3 86 99 100
3 87 100 101
3 88 101 102
3 89 102 103
3 90 103 104
3 91 104 105
3 92 105 106
3 93 106 107
3 94 107 108
3 95 108 109
3 96 109 110
3 97 110 111
2 98 112
3 99 112 113
3 100 113 114
3 101 114 115
3 102 115 116
3 103 116 117
3 104 117 118
3 105 118 119
3 106 119 120
3 107 120 121
3 108 121 122
3 109 122 123
3 110 123 124
3 111 124 125
2 112 126
3 113 126 127
3 114 127 128
3 115 128 129
3 116 129 130
3 117 130 131
3 118 131 132
3 119 132 133
3 120 133 134
3 121 134 135
3 122 135 136
3 123 136 137
3 124 137 138
3 125 138 139
2 126 140
3 127 140 141
3 128 141 142
3 129 142 143
3 130 143 144
3 131 144 145
3 132 145 146
3 133 146 147
3 134 147 148
3 135 148 149
3 136 149 150
3 137 150 151
3 138 151 152
3 139 152 153
2 140 154
3 141 154 155
3 142 155 156
3 143 156 157
3 144 157 158
3 145 158 159
3 146 159 160
3 147 160 161
3 148 161 162
3 149 162 163
3 150 163 164
3 151 164 165
3 152 165 166
3 153 166 167
2 154 168
3 155 168 169
3 156 169 170
3 157 170 171
3 158 171 172
3 159 172 173
3 160 173 174
3 161 174 175
3 162 175 176
3 163 176 177
3 164 177 178
3 165 178 179
3 166 179 180
3 167 180 181
2 168 182
3 169 182 183
3 170 183 184
3 171 184 185
3 172 185 186
3 173 186 187
3 174 187 188
3 175 188 189
3 176 189 190
3 177 190 191
3 178 191 192
3 179 192 193
3 180 193 194
3 181 194 195

2
0.471631 0.528369
4
0.0 1.0 1.0 0.0
4
1.0 0.0 0.0 1.0
4
1.0 0.0 0.0 1.0
4
0.0 1.0 1.0 0.0
4
1.0 0.0 0.0 1.0
4
0.0 1.0 1.0 0.0
4
1.0 0.0 0.0 1.0
4
0.0 1.0 1.0 0.0
4
0.0 1.0 1.0 0.0
4
0.369405 0.630595 0.199265 0.800735
4
1.0 0.0 0.0 1.0
4
0.0 1.0 1.0 0.0
4
1.0 0.0 0.0 1.0
4
1.0 0.0 0.0 1.0
8
0.0 1.0 1.0 0.0 0.0 1.0 1.0 0.0
8
0.0 1.0 1.0 0.0 0.0 1.0 0.0 1.0
8
1.0 0.0 1.0 0.0 0.0 1.0 0.0 1.0
8
0.0 1.0 0.0 1.0 1.0 0.0 0.0 1.0
8
0.911786 0.0882139 0.68271 0.31729 0.402064 0.597936 0.206033 0.793967
8
0.0 1.0 0.0 1.0 1.0 0.0 1.0 0.0
8
1.0 0.0 0.0 1.0 1.0 0.0 0.0 1.0
8
1.0 0.0 0.0 1.0 0.0 1.0 0.0 1.0
8
0.0 1.0 1.0 0.0 0.0 1.0 0.0 1.0
8
0.511389 0.488611 0.587114 0.412886 0.519645 0.480355 0.22391 0.77609
8
1.0 0.0 0.0 1.0 1.0 0.0 0.0 1.0
8
0.0 1.0 0.0 1.0 0.0 1.0 1.0 0.0
8
1.0 0.0 0.0 1.0 1.0 0.0 0.0 1.0
4
1.0 0.0 0.0 1.0
8
0.273807 0.726193 0.625579 0.374421 0.909281 0.0907194 0.815154 0.184846
8
1.0 0.0 0.0 1.0 0.0 1.0 0.0 1.0
8
0.0 1.0 1.0 0.0 1.0 0.0 0.0 1.0
8
0.0 1.0 1.0 0.0 0.0 1.0 1.0 0.0
8
0.0 1.0 1.0 0.0 0.0 1.0 1.0 0.0
8
0.0 1.0 0.0 1.0 1.0 0.0 0.0 1.0
8
0.703314 0.296686 0.614189 0.385811 0.622009 0.377991 0.612594 0.387406
8
1.0 0.0 0.0 1.0 1.0 0.0 1.0 0.0
8
0.992552 0.00744822 0.803517 0.196483 0.124525 0.875475 0.253761 0.746239
8
1.0 0.0 0.0 1.0 0.0 1.0 1.0 0.0
8
1.0 0.0 1.0 0.0 0.0 1.0 1.0 0.0
8
1.0 0.0 0.0 1.0 0.0 1.0 1.0 0.0
8
1.0 0.0 0.0 1.0 1.0 0.0 0.0 1.0
4
0.0 1.0 1.0 0.0
8
1.0 0.0 0.0 1.0 0.0 1.0 0.0 1.0
8
1.0 0.0 0.0 1.0 1.0 0.0 0.0 1.0
8
0.0 1.0 1.0 0.0 1.0 0.0 1.0 0.0
8
0.0 1.0 0.0 1.0 1.0 0.0 0.0 1.0
8
0.689385 0.310615 0.440763 0.559237 0.138307 0.861693 0.671814 0.328186
8
0.0 1.0 0.0 1.0 1.0 0.0 1.0 0.0
8
1.0 0.0 1.0 0.0 1.0 0.0 0.0 1.0
8
0.0 1.0 1.0 0.0 1.0 0.0 1.0 0.0
8
1.0 0.0 0.0 1.0 1.0 0.0 1.0 0.0
8
0.0 1.0 1.0 0.0 1.0 0.0 0.0 1.0
8
0.0 1.0 1.0 0.0 0.0 1.0 0.0 1.0
8
0.0 1.0 1.0 0.0 1.0 0.0 1.0 0.0
8
1.0 0.0 1.0 0.0 1.0 0.0 0.0 1.0
4
1.0 0.0 0.0 1.0
8
0.0 1.0 1.0 0.0 0.0 1.0 1.0 0.0
8
0.0 1.0 0.0 1.0 1.0 0.0 0.0 1.0
8
0.0 1.0 0.0 1.0 0.0 1.0 1.0 0.0
8
0.0 1.0 0.0 1.0 0.0 1.0 1.0 0.0
8
1.0 0.0 0.0 1.0 1.0 0.0 0.0 1.0
8
1.0 0.0 1.0 0.0 1.0 0.0 0.0 1.0
8
0.0 1.0 1.0 0.0 0.0 1.0 1.0 0.0
8
0.00419257 0.995807 0.73666 0.26334 0.678308 0.321692 0.903748 0.0962517
8
1.0 0.0 0.0 1.0 1.0 0.0 0.0 1.0
8
1.0 0.0 1.0 0.0 0.0 1.0 1.0 0.0
8
1.0 0.0 0.0 1.0 0.0 1.0 1.0 0.0
8
1.0 0.0 0.0 1.0 1.0 0.0 1.0 0.0
8
1.0 0.0 0.0 1.0 1.0 0.0 0.0 1.0
4
0.0 1.0 1.0 0.0
8
0.0 1.0 0.0 1.0 0.0 1.0 1.0 0.0
8
0.0 1.0 1.0 0.0 1.0 0.0 1.0 0.0
8
0.0 1.0 0.0 1.0 1.0 0.0 1.0 0.0
8
1.0 0.0 1.0 0.0 0.0 1.0 0.0 1.0
8
1.0 0.0 0.0 1.0 1.0 0.0 0.0 1.0
8
0.0 1.0 1.0 0.0 0.0 1.0 0.0 1.0
8
0.0 1.0 1.0 0.0 1.0 0.0 0.0 1.0
8
1.0 0.0 1.0 0.0 1.0 0.0 0.0 1.0
8
0.0 1.0 0.0 1.0 0.0 1.0 1.0 0.0
8
0.666427 0.333573 0.751295 0.248705 0.644061 0.355939 0.0682142 0.931786
8
0.0 1.0 1.0 0.0 1.0 0.0 1.0 0.0
8
0.0 1.0 0.0 1.0 1.0 0.0 0.0 1.0
8
0.0 1.0 1.0 0.0 1.0 0.0 1.0 0.0
4
0.0 1.0 1.0 0.0
8
1.0 0.0 0.0 1.0 0.0 1.0 1.0 0.0
8
1.0 0.0 0.0 1.0 1.0 0.0 0.0 1.0
8
0.787204 0.212796 0.343193 0.656807 0.661648 0.338352 0.964122 0.0358778
8
1.0 0.0 0.0 1.0 0.0 1.0 0.0 1.0
8
0.703699 0.296301 0.680947 0.319053 0.101665 0.898335 0.212261 0.787739
8
0.395066 0.604934 0.381458 0.618542 0.600722 0.399278 0.626973 0.373027
8
0.0 1.0 1.0 0.0 0.0 1.0 1.0 0.0
8
0.285422 0.714578 0.0874972 0.912503 0.138466 0.861534 0.5604 0.4396
8
1.0 0.0 1.0 0.0 0.0 1.0 1.0 0.0
8
1.0 0.0 0.0 1.0 1.0 0.0 1.0 0.0
8
0.0 1.0 0.0 1.0 0.0 1.0 1.0 0.0
8
0.0 1.0 1.0 0.0 1.0 0.0 1.0 0.0
8
0.0 1.0 0.0 1.0 1.0 0.0 1.0 0.0
4
1.0 0.0 0.0 1.0
8
1.0 0.0 0.0 1.0 1.0 0.0 0.0 1.0
8
1.0 0.0 1.0 0.0 1.0 0.0 0.0 1.0
8
0.203864 0.796136 0.767432 0.232568 0.923511 0.0764893 0.971681 0.0283189
8
0.571636 0.428364 0.841163 0.158837 0.337627 0.662373 0.120935 0.879065
8
0.0 1.0 0.0 1.0 0.0 1.0 1.0 0.0
8
0.0 1.0 0.0 1.0 1.0 0.0 0.0 1.0
8
1.0 0.0 1.0 0.0 0.0 1.0 0.0 1.0
8
1.0 0.0 1.0 0.0 1.0 0.0 0.0 1.0
8
0.0 1.0 1.0 0.0 0.0 1.0 0.0 1.0
8
0.0 1.0 1.0 0.0 0.0 1.0 1.0 0.0
8
0.431214 0.568786 0.624122 0.375878 0.213828 0.786172 0.428445 0.571555
8
0.548126 0.451874 0.0727558 0.927244 0.248547 0.751453 0.82528 0.17472
8
0.0 1.0 0.0 1.0 1.0 0.0 0.0 1.0
4
0.0 1.0 1.0 0.0
8
1.0 0.0 1.0 0.0 0.0 1.0 1.0 0.0
8
1.0 0.0 1.0 0.0 0.0 1.0 0.0 1.0
8
1.0 0.0 1.0 0.0 0.0 1.0 0.0 1.0
8
0.693854 0.306146 0.12736 0.87264 0.367311 0.632689 0.670599 0.329401
8
0.0 1.0 0.0 1.0 1.0 0.0 0.0 1.0
8
1.0 0.0 0.0 1.0 0.0 1.0 1.0 0.0
8
0.0 1.0 1.0 0.0 1.0 0.0 1.0 0.0
8
0.0 1.0 1.0 0.0 0.0 1.0 1.0 0.0
8
0.0172147 0.982785 0.0595742 0.940426 0.993941 0.00605856 0.930747 0.0692531
8
0.687795 0.312205 0.058107 0.941893 0.365752 0.634248 0.358394 0.641606
8
1.0 0.0 0.0 1.0 0.0 1.0 1.0 0.0
8
0.867913 0.132087 0.831947 0.168053 0.532091 0.467909 0.0188892 0.981111
8
1.0 0.0 1.0 0.0 0.0 1.0 1.0 0.0
4
1.0 0.0 0.0 1.0
8
1.0 0.0 1.0 0.0 0.0 1.0 0.0 1.0
8
0.0 1.0 1.0 0.0 1.0 0.0 1.0 0.0
8
1.0 0.0 0.0 1.0 1.0 0.0 0.0 1.0
8
1.0 0.0 0.0 1.0 0.0 1.0 1.0 0.0
8
0.0 1.0 1.0 0.0 0.0 1.0 1.0 0.0
8
0.921803 0.0781975 0.798283 0.201717 0.619677 0.380323 0.767821 0.232179
8
0.680313 0.319687 0.982127 0.0178732 0.158737 0.841263 0.29287 0.70713
8
1.0 0.0 0.0 1.0 0.0 1.0 0.0 1.0
8
1.0 0.0 1.0 0.0 0.0 1.0 1.0 0.0
8
1.0 0.0 0.0 1.0 0.0 1.0 1.0 0.0
8
1.0 0.0 1.0 0.0 0.0 1.0 1.0 0.0
8
0.892754 0.107246 0.578425 0.421575 0.544408 0.455592 0.660575 0.339425
8
0.0 1.0 1.0 0.0 0.0 1.0 0.0 1.0
4
1.0 0.0 0.0 1.0
8
0.0 1.0 0.0 1.0 0.0 1.0 1.0 0.0
8
0.0 1.0 0.0 1.0 1.0 0.0 1.0 0.0
8
0.0 1.0 0.0 1.0 1.0 0.0 1.0 0.0
8
0.0 1.0 1.0 0.0 0.0 1.0 1.0 0.0
8
0.0 1.0 1.0 0.0 1.0 0.0 0.0 1.0
8
0.0 1.0 0.0 1.0 1.0 0.0 0.0 1.0
8
0.0 1.0 0.0 1.0 1.0 0.0 0.0 1.0
8
1.0 0.0 1.0 0.0 0.0 1.0 0.0 1.0
8
1.0 0.0 0.0 1.0 1.0 0.0 0.0 1.0
8
0.0 1.0 1.0 0.0 1.0 0.0 0.0 1.0
8
0.0 1.0 1.0 0.0 1.0 0.0 0.0 1.0
8
1.0 0.0 0.0 1.0 1.0 0.0 0.0 1.0
8
0.0 1.0 0.0 1.0 1.0 0.0 0.0 1.0
4
1.0 0.0 0.0 1.0
8
0.0 1.0 0.0 1.0 1.0 0.0 0.0 1.0
8
0.0 1.0 1.0 0.0 0.0 1.0 0.0 1.0
8
0.0675669 0.932433 0.0541968 0.945803 0.0716316 0.928368 0.615074 0.384926
8
1.0 0.0 0.0 1.0 1.0 0.0 0.0 1.0
8
0.0 1.0 1.0 0.0 0.0 1.0 1.0 0.0
8
0.0 1.0 0.0 1.0 0.0 1.0 1.0 0.0
8
1.0 0.0 1.0 0.0 0.0 1.0 0.0 1.0
8
0.655783 0.344217 0.612864 0.387136 0.132278 0.867722 0.232458 0.767542
8
1.0 0.0 0.0 1.0 1.0 0.0 0.0 1.0
8
0.433889 0.566111 0.212356 0.787644 0.678703 0.321297 0.293078 0.706922
8
1.0 0.0 0.0 1.0 1.0 0.0 1.0 0.0
8
1.0 0.0 0.0 1.0 0.0 1.0 1.0 0.0
8
0.373079 0.626921 0.0994065 0.900594 0.0660768 0.933923 0.811196 0.188804
4
1.0 0.0 0.0 1.0
8
1.0 0.0 0.0 1.0 1.0 0.0 0.0 1.0
8
1.0 0.0 1.0 0.0 0.0 1.0 1.0 0.0
8
0.0 1.0 1.0 0.0 1.0 0.0 1.0 0.0
8
1.0 0.0 0.0 1.0 1.0 0.0 0.0 1.0
8
1.0 0.0 0.0 1.0 1.0 0.0 1.0 0.0
8
0.0 1.0 1.0 0.0 1.0 0.0 1.0 0.0
8
1.0 0.0 0.0 1.0 1.0 0.0 1.0 0.0
8
1.0 0.0 0.0 1.0 0.0 1.0 0.0 1.0
8
1.0 0.0 1.0 0.0 0.0 1.0 1.0 0.0
8
1.0 0.0 0.0 1.0 1.0 0.0 0.0 1.0
8
1.0 0.0 1.0 0.0 0.0 1.0 1.0 0.0
8
1.0 0.0 1.0 0.0 1.0 0.0 0.0 1.0
8
0.0 1.0 1.0 0.0 1.0 0.0 1.0 0.0
4
1.0 0.0 0.0 1.0
8
1.0 0.0 1.0 0.0 0.0 1.0 0.0 1.0
8
1.0 0.0 0.0 1.0 1.0 0.0 1.0 0.0
8
1.0 0.0 0.0 1.0 0.0 1.0 0.0 1.0
8
1.0 0.0 0.0 1.0 1.0 0.0 0.0 1.0
8
0.0 1.0 1.0 0.0 0.0 1.0 1.0 0.0
8
1.0 0.0 0.0 1.0 1.0 0.0 0.0 1.0
8
1.0 0.0 1.0 0.0 0.0 1.0 0.0 1.0
8
1.0 0.0 1.0 0.0 1.0 0.0 0.0 1.0
8
0.0 1.0 0.0 1.0 1.0 0.0 0.0 1.0
8
1.0 0.0 0.0 1.0 0.0 1.0 0.0 1.0
8
0.0 1.0 0.0 1.0 1.0 0.0 0.0 1.0
8
1.0 0.0 1.0 0.0 0.0 1.0 0.0 1.0
8
0.0 1.0 1.0 0.0 0.0 1.0 0.0 1.0